28868
78, 40, 70, 99, 42, 45, 34, 76, 59, 61, 85, 26, 11, 19, 56, 50, 86, 6, 8, 54, 82, 33, 28, 2, 13, 47, 29, 84, 67, 38, 51, 77, 95, 4, 36, 32, 75, 12, 94, 81, 49, 72, 80, 24, 60, 68, 43, 1, 63, 39, 53, 88, 41, 30, 79, 55, 96, 74, 18, 3, 25, 64, 65, 69, 21, 15, 52, 87, 93, 17, 23, 37, 98, 35, 58, 16, 14, 44, 22, 97, 90, 31, 46, 10, 73, 20, 71, 83, 9, 89, 48, 5, 62, 91, 7, 66, 57, 27, 92, 0, 78